c nIsolatedPIs 4
c maxPI 12
p cnf 102 271
c gate 13 1 9 0
1 -13 0
9 -13 0
-1 -9 13 0
c gate 14 2 8 0
2 -14 0
8 -14 0
-2 -8 14 0
c gate 15 3 7 0
3 -15 0
7 -15 0
-3 -7 15 0
c gate 16 -14 -15 0
-14 -16 0
-15 -16 0
14 15 16 0
c gate 17 14 15 0
14 -17 0
15 -17 0
-14 -15 17 0
c gate 18 -16 -17 0
-16 -18 0
-17 -18 0
16 17 18 0
c gate 19 13 18 0
13 -19 0
18 -19 0
-13 -18 19 0
c gate 20 -13 -18 0
-13 -20 0
-18 -20 0
13 18 20 0
c gate 21 -19 -20 0
-19 -21 0
-20 -21 0
19 20 21 0
c gate 22 2 7 0
2 -22 0
7 -22 0
-2 -7 22 0
c gate 23 1 8 0
1 -23 0
8 -23 0
-1 -8 23 0
c gate 24 22 23 0
22 -24 0
23 -24 0
-22 -23 24 0
c gate 25 21 24 0
21 -25 0
24 -25 0
-21 -24 25 0
c gate 26 1 10 0
1 -26 0
10 -26 0
-1 -10 26 0
c gate 27 -17 -19 0
-17 -27 0
-19 -27 0
17 19 27 0
c gate 28 2 9 0
2 -28 0
9 -28 0
-2 -9 28 0
c gate 29 3 8 0
3 -29 0
8 -29 0
-3 -8 29 0
c gate 30 4 7 0
4 -30 0
7 -30 0
-4 -7 30 0
c gate 31 -29 -30 0
-29 -31 0
-30 -31 0
29 30 31 0
c gate 32 29 30 0
29 -32 0
30 -32 0
-29 -30 32 0
c gate 33 -31 -32 0
-31 -33 0
-32 -33 0
31 32 33 0
c gate 34 28 33 0
28 -34 0
33 -34 0
-28 -33 34 0
c gate 35 -28 -33 0
-28 -35 0
-33 -35 0
28 33 35 0
c gate 36 -34 -35 0
-34 -36 0
-35 -36 0
34 35 36 0
c gate 37 -27 36 0
-27 -37 0
36 -37 0
27 -36 37 0
c gate 38 27 -36 0
27 -38 0
-36 -38 0
-27 36 38 0
c gate 39 -37 -38 0
-37 -39 0
-38 -39 0
37 38 39 0
c gate 40 26 39 0
26 -40 0
39 -40 0
-26 -39 40 0
c gate 41 -26 -39 0
-26 -41 0
-39 -41 0
26 39 41 0
c gate 42 -40 -41 0
-40 -42 0
-41 -42 0
40 41 42 0
c gate 43 25 42 0
25 -43 0
42 -43 0
-25 -42 43 0
c gate 44 -37 -40 0
-37 -44 0
-40 -44 0
37 40 44 0
c gate 45 1 11 0
1 -45 0
11 -45 0
-1 -11 45 0
c gate 46 2 10 0
2 -46 0
10 -46 0
-2 -10 46 0
c gate 47 -45 -46 0
-45 -47 0
-46 -47 0
45 46 47 0
c gate 48 45 46 0
45 -48 0
46 -48 0
-45 -46 48 0
c gate 49 -47 -48 0
-47 -49 0
-48 -49 0
47 48 49 0
c gate 50 -32 -34 0
-32 -50 0
-34 -50 0
32 34 50 0
c gate 51 3 9 0
3 -51 0
9 -51 0
-3 -9 51 0
c gate 52 4 8 0
4 -52 0
8 -52 0
-4 -8 52 0
c gate 53 5 7 0
5 -53 0
7 -53 0
-5 -7 53 0
c gate 54 -52 -53 0
-52 -54 0
-53 -54 0
52 53 54 0
c gate 55 52 53 0
52 -55 0
53 -55 0
-52 -53 55 0
c gate 56 -54 -55 0
-54 -56 0
-55 -56 0
54 55 56 0
c gate 57 51 56 0
51 -57 0
56 -57 0
-51 -56 57 0
c gate 58 -51 -56 0
-51 -58 0
-56 -58 0
51 56 58 0
c gate 59 -57 -58 0
-57 -59 0
-58 -59 0
57 58 59 0
c gate 60 -50 59 0
-50 -60 0
59 -60 0
50 -59 60 0
c gate 61 50 -59 0
50 -61 0
-59 -61 0
-50 59 61 0
c gate 62 -60 -61 0
-60 -62 0
-61 -62 0
60 61 62 0
c gate 63 49 62 0
49 -63 0
62 -63 0
-49 -62 63 0
c gate 64 -49 -62 0
-49 -64 0
-62 -64 0
49 62 64 0
c gate 65 -63 -64 0
-63 -65 0
-64 -65 0
63 64 65 0
c gate 66 -44 65 0
-44 -66 0
65 -66 0
44 -65 66 0
c gate 67 44 -65 0
44 -67 0
-65 -67 0
-44 65 67 0
c gate 68 -66 -67 0
-66 -68 0
-67 -68 0
66 67 68 0
c gate 69 43 68 0
43 -69 0
68 -69 0
-43 -68 69 0
c gate 70 -60 -63 0
-60 -70 0
-63 -70 0
60 63 70 0
c gate 71 1 12 0
1 -71 0
12 -71 0
-1 -12 71 0
c gate 72 2 11 0
2 -72 0
11 -72 0
-2 -11 72 0
c gate 73 3 10 0
3 -73 0
10 -73 0
-3 -10 73 0
c gate 74 -72 -73 0
-72 -74 0
-73 -74 0
72 73 74 0
c gate 75 72 73 0
72 -75 0
73 -75 0
-72 -73 75 0
c gate 76 -74 -75 0
-74 -76 0
-75 -76 0
74 75 76 0
c gate 77 71 76 0
71 -77 0
76 -77 0
-71 -76 77 0
c gate 78 -71 -76 0
-71 -78 0
-76 -78 0
71 76 78 0
c gate 79 -77 -78 0
-77 -79 0
-78 -79 0
77 78 79 0
c gate 80 -55 -57 0
-55 -80 0
-57 -80 0
55 57 80 0
c gate 81 4 9 0
4 -81 0
9 -81 0
-4 -9 81 0
c gate 82 5 8 0
5 -82 0
8 -82 0
-5 -8 82 0
c gate 83 6 7 0
6 -83 0
7 -83 0
-6 -7 83 0
c gate 84 -82 -83 0
-82 -84 0
-83 -84 0
82 83 84 0
c gate 85 82 83 0
82 -85 0
83 -85 0
-82 -83 85 0
c gate 86 -84 -85 0
-84 -86 0
-85 -86 0
84 85 86 0
c gate 87 81 86 0
81 -87 0
86 -87 0
-81 -86 87 0
c gate 88 -81 -86 0
-81 -88 0
-86 -88 0
81 86 88 0
c gate 89 -87 -88 0
-87 -89 0
-88 -89 0
87 88 89 0
c gate 90 -80 89 0
-80 -90 0
89 -90 0
80 -89 90 0
c gate 91 80 -89 0
80 -91 0
-89 -91 0
-80 89 91 0
c gate 92 -90 -91 0
-90 -92 0
-91 -92 0
90 91 92 0
c gate 93 79 92 0
79 -93 0
92 -93 0
-79 -92 93 0
c gate 94 -79 -92 0
-79 -94 0
-92 -94 0
79 92 94 0
c gate 95 -93 -94 0
-93 -95 0
-94 -95 0
93 94 95 0
c gate 96 -70 95 0
-70 -96 0
95 -96 0
70 -95 96 0
c gate 97 70 -95 0
70 -97 0
-95 -97 0
-70 95 97 0
c gate 98 -96 -97 0
-96 -98 0
-97 -98 0
96 97 98 0
c gate 99 48 98 0
48 -99 0
98 -99 0
-48 -98 99 0
c gate 100 -48 -98 0
-48 -100 0
-98 -100 0
48 98 100 0
c gate 101 -99 -100 0
-99 -101 0
-100 -101 0
99 100 101 0
c gate 102 69 101 0
69 -102 0
101 -102 0
-69 -101 102 0
c PO
102 0
